%chk=DME
%mem=4GB
%nproc=4

# opt freq b3lyp/aug-cc-PVDZ scf(xqc) nosymm em=gd3

ethane

0 1
C          1.09642        0.01446       -0.03526
C          2.60848        0.01446       -0.03526
H          0.71211       -0.22501       -1.03124
H          0.71211        0.99673        0.25534
H          0.71211       -0.72835        0.67010
H          2.99279        0.75726       -0.74063
H          2.99279       -0.96781       -0.32587
H          2.99279        0.25392        0.96071

